NAME : eil51.159573_473639.tour
COMMENT : Cost = 159573_473639
COMMENT : Found by LKH [Keld Helsgaun] Wed May  9 09:53:39 2018
TYPE : TOUR
DIMENSION : 53
TOUR_SECTION
1
2
16
50
21
34
30
9
49
10
39
33
45
15
37
5
38
11
32
53
51
46
12
47
18
4
17
44
42
19
40
41
13
25
14
6
27
52
22
29
20
35
36
3
28
31
8
26
7
43
24
23
48
-1
EOF
